18,9	0,0	7,1	13,2	0,0	0,0	0,0	0,0	0,0	7,0
10,4	9,3	0,0	18,1	9,6	0,0	0,0	14,0	0,0	0,0
0,0	0,0	9,4	0,0	8,5	15,3	0,0	0,0	16,8	0,0
14,3	0,0	5,4	0,0	0,0	0,0	12,2	0,0	0,0	0,0
0,0	19,0	0,0	13,1	14,1	0,0	0,0	11,3	0,0	0,0
0,0	5,6	9,2	0,0	12,7	13,7	0,0	0,0	9,4	0,0
0,0	5,7	0,0	12,1	0,0	0,0	13,4	0,0	0,0	13,6
15,6	0,0	15,5	0,0	0,0	0,0	0,0	0,0	0,0	12,1
0,0	17,7	0,0	7,8	12,6	0,0	0,0	18,0	0,0	0,0
0,0	0,0	14,8	0,0	0,0	10,2	10,2	0,0	0,0	6,0
									
3,7	2,6	3,2	4,0	4,2	4,7	2,6	3,6	3,8	4,9
